phase2/problem_log/problem878.sol
# Solution for model Resale_Solver
# Objective value = 50
list[0] 0
list[1] 0
indicator[0] 0
indicator[1] 0
